25
3 0 24 0
3 0 15 0
3 0 14 0
3 0 5 0
3 0 11 0
3 0 10 0
3 0 8 0
3 0 7 0
3 0 6 0
3 0 12 0
3 0 4 0
3 0 3 0
3 0 9 0
3 0 1 0
4 0 23 36 0
4 0 32 21 0
4 0 17 19 0
4 0 26 30 0
4 0 25 29 0
4 0 16 31 0
4 0 20 27 0
4 0 18 35 0
4 0 34 28 0
4 0 33 22 0
4 0 2 13 0
